1226.0 13062.0 2938.0 
1152.0 13180.0 3150.0 
1192.0 13251.0 2828.0 
1234.0 13184.0 2717.0 
1184.0 13172.0 3015.0 
1179.0 13141.0 3334.0 
1199.0 13117.0 3053.0 
1161.0 13240.0 2947.0 
1182.0 13161.0 3173.0 
1142.0 13350.0 3115.0 
1129.0 13854.0 3529.0 
1158.0 13195.0 3110.0 
1198.0 13231.0 2933.0 
1225.0 13148.0 3008.0 
1134.0 13784.0 3826.0 
1138.0 13270.0 3156.0 
1123.0 13991.0 3612.0 
1198.0 13207.0 2970.0 
1134.0 13667.0 3938.0 
1203.0 13193.0 2930.0 
1184.0 12995.0 3056.0 
1182.0 13178.0 3161.0 
1178.0 13177.0 3190.0 
1222.0 13246.0 2779.0 
1160.0 13206.0 3026.0 
1142.0 13350.0 3115.0 
